/*********************************************
 * OPL 20.1.0.0 Data
 * Author: CarlosJavier
 * Creation Date: 27/03/2022 at 12:28:44 p. m.
 *********************************************/
 
 Cost = [90, 75, 70, 63, 
 80, 70, 65, 60,
 104, 85, 83, 77,
 98, 79, 80, 74,
 123, 101, 110, 99,
 113, 94, 100, 84,
 160, 156, 140,
 142, 150, 130,
 140, 110, 122,
 124, 96, 101,
 160, 133, 138,
 143, 127, 133,
 202, 150, 160,
 190, 141, 140,
 190, 220,
 175, 200];
 
 ProcessingTime = [0.8, 0.7, 0.5, 0.6,
 0.8, 0.7, 0.5, 0.6,
 0.8, 0.7, 0.5, 0.6,
 0.8, 0.7, 0.5, 0.6,
 0.8, 0.7, 0.5, 0.6,
 0.8, 0.7, 0.5, 0.6,
 0.9, 0.5, 0.6,
 0.9, 0.5, 0.6,
 1.5, 0.9, 1.2,
 1.5, 0.9, 1.2,
 1.5, 0.9, 1.2,
 1.5, 0.9, 1.2,
 1.5, 0.9, 1.2,
 1.5, 0.9, 1.2,
 1.0, 1.5,
 1.0, 1.5];
 
 WeeklyDemand = [100, 630, 500, 980, 720, 240, 75, 22, 50, 22, 353, 55, 125, 35, 100, 10];
 
 ProductionCapacity = [800, 480, 1280, 960];
